(set-info :smt-lib-version 2.6)
;;; Processed by pysmt to remove constant-real bitvector literals
(set-logic QF_FP)
(set-info :source |SPARK inspired floating point problems by Florian Schanda|)
(set-info :category "crafted")
(set-info :status sat)
(define-fun a () (_ FloatingPoint 8 24) (fp #b0 #b10001010 #b00100011011110101011110))
(define-fun b () (_ FloatingPoint 8 24) (fp #b0 #b10000101 #b00010001011000100110011))
(define-fun n () (_ FloatingPoint 8 24) (fp #b0 #b10000100 #b00010111110101000101110))
(assert (fp.lt a (fp.mul RNE n b)))
(assert (fp.gt b (_ +zero 8 24)))
(assert (not (fp.leq (fp.div RNE a b) n)))
(check-sat)
(exit)
